\Problem name: compact

Minimize
OBJROW: C
Subject To
ord(0,1):  x(0,0) - x(0,1) >= 3
ord(0,2):  - x(0,0) + x(0,2) >= 5
ord(1,1):  - x(1,0) + x(1,1) >= 1
ord(1,2):  - x(1,1) + x(1,2) >= 8
ord(2,1):  - x(2,0) + x(2,1) >= 4
ord(2,2):  - x(2,1) + x(2,2) >= 5
triangle2(0,1,0):  y(0,1,0) + y(1,0,0) = 1
triangle2(0,1,1):  y(0,1,1) + y(1,0,1) = 1
triangle2(0,1,2):  y(0,1,2) + y(1,0,2) = 1
triangle2(0,2,0):  y(0,2,0) + y(2,0,0) = 1
triangle2(0,2,1):  y(0,2,1) + y(2,0,1) = 1
triangle2(0,2,2):  y(0,2,2) + y(2,0,2) = 1
triangle2(1,2,0):  y(1,2,0) + y(2,1,0) = 1
triangle2(1,2,1):  y(1,2,1) + y(2,1,1) = 1
triangle2(1,2,2):  y(1,2,2) + y(2,1,2) = 1
MCLinV(0,1,0):  x(0,0) - v(0,1,0) - x(1,0) = 1
MCLinV(1,0,0):  - x(0,0) - v(1,0,0) + x(1,0) = 5
MCLin1(0,1,0):  u(0,1,0) >= -0
MCLin2(0,1,0):  -24 y(1,0,0) - u(0,1,0) <= -0
MCLin3(0,1,0):  31 y(1,0,0) + v(0,1,0) - u(0,1,0) <= 31
MCLin4(0,1,0):  31 y(1,0,0) - u(0,1,0) >= -0
MCLin5(0,1,0):  -24 y(1,0,0) + v(0,1,0) - u(0,1,0) >= -24
MCLin6(1,0,0):  u(1,0,0) >= -0
MCLin7(1,0,0):  -37 y(0,1,0) - u(1,0,0) <= -0
MCLin8(1,0,0):  18 y(0,1,0) + v(1,0,0) - u(1,0,0) <= 18
MCLin9(1,0,0):  18 y(0,1,0) - u(1,0,0) >= -0
MCLin10(1,0,0):  -37 y(0,1,0) + v(1,0,0) - u(1,0,0) >= -37
MCLinV(0,1,1):  x(0,1) - v(0,1,1) - x(1,1) = 8
MCLinV(1,0,1):  - x(0,1) - v(1,0,1) + x(1,1) = 3
MCLin1(0,1,1):  u(0,1,1) >= -0
MCLin2(0,1,1):  -35 y(1,0,1) - u(0,1,1) <= -0
MCLin3(0,1,1):  20 y(1,0,1) + v(0,1,1) - u(0,1,1) <= 20
MCLin4(0,1,1):  20 y(1,0,1) - u(0,1,1) >= -0
MCLin5(0,1,1):  -35 y(1,0,1) + v(0,1,1) - u(0,1,1) >= -35
MCLin6(1,0,1):  u(1,0,1) >= -0
MCLin7(1,0,1):  -31 y(0,1,1) - u(1,0,1) <= -0
MCLin8(1,0,1):  24 y(0,1,1) + v(1,0,1) - u(1,0,1) <= 24
MCLin9(1,0,1):  24 y(0,1,1) - u(1,0,1) >= -0
MCLin10(1,0,1):  -31 y(0,1,1) + v(1,0,1) - u(1,0,1) >= -31
MCLinV(0,1,2):  x(0,2) - v(0,1,2) - x(1,2) = 5
MCLinV(1,0,2):  - x(0,2) - v(1,0,2) + x(1,2) = 3
MCLin1(0,1,2):  u(0,1,2) >= -0
MCLin2(0,1,2):  -32 y(1,0,2) - u(0,1,2) <= -0
MCLin3(0,1,2):  23 y(1,0,2) + v(0,1,2) - u(0,1,2) <= 23
MCLin4(0,1,2):  23 y(1,0,2) - u(0,1,2) >= -0
MCLin5(0,1,2):  -32 y(1,0,2) + v(0,1,2) - u(0,1,2) >= -32
MCLin6(1,0,2):  u(1,0,2) >= -0
MCLin7(1,0,2):  -31 y(0,1,2) - u(1,0,2) <= -0
MCLin8(1,0,2):  24 y(0,1,2) + v(1,0,2) - u(1,0,2) <= 24
MCLin9(1,0,2):  24 y(0,1,2) - u(1,0,2) >= -0
MCLin10(1,0,2):  -31 y(0,1,2) + v(1,0,2) - u(1,0,2) >= -31
MCLinV(0,2,0):  x(0,0) - v(0,2,0) - x(2,0) = 4
MCLinV(2,0,0):  - x(0,0) - v(2,0,0) + x(2,0) = 5
MCLin1(0,2,0):  u(0,2,0) >= -0
MCLin2(0,2,0):  -26 y(2,0,0) - u(0,2,0) <= -0
MCLin3(0,2,0):  28 y(2,0,0) + v(0,2,0) - u(0,2,0) <= 28
MCLin4(0,2,0):  28 y(2,0,0) - u(0,2,0) >= -0
MCLin5(0,2,0):  -26 y(2,0,0) + v(0,2,0) - u(0,2,0) >= -26
MCLin6(2,0,0):  u(2,0,0) >= -0
MCLin7(2,0,0):  -37 y(0,2,0) - u(2,0,0) <= -0
MCLin8(2,0,0):  17 y(0,2,0) + v(2,0,0) - u(2,0,0) <= 17
MCLin9(2,0,0):  17 y(0,2,0) - u(2,0,0) >= -0
MCLin10(2,0,0):  -37 y(0,2,0) + v(2,0,0) - u(2,0,0) >= -37
MCLinV(0,2,1):  x(0,1) - v(0,2,1) - x(2,1) = 5
MCLinV(2,0,1):  - x(0,1) - v(2,0,1) + x(2,1) = 3
MCLin1(0,2,1):  u(0,2,1) >= -0
MCLin2(0,2,1):  -34 y(2,0,1) - u(0,2,1) <= -0
MCLin3(0,2,1):  20 y(2,0,1) + v(0,2,1) - u(0,2,1) <= 20
MCLin4(0,2,1):  20 y(2,0,1) - u(0,2,1) >= -0
MCLin5(0,2,1):  -34 y(2,0,1) + v(0,2,1) - u(0,2,1) >= -34
MCLin6(2,0,1):  u(2,0,1) >= -0
MCLin7(2,0,1):  -28 y(0,2,1) - u(2,0,1) <= -0
MCLin8(2,0,1):  26 y(0,2,1) + v(2,0,1) - u(2,0,1) <= 26
MCLin9(2,0,1):  26 y(0,2,1) - u(2,0,1) >= -0
MCLin10(2,0,1):  -28 y(0,2,1) + v(2,0,1) - u(2,0,1) >= -28
MCLinV(0,2,2):  x(0,2) - v(0,2,2) - x(2,2) = 6
MCLinV(2,0,2):  - x(0,2) - v(2,0,2) + x(2,2) = 3
MCLin1(0,2,2):  u(0,2,2) >= -0
MCLin2(0,2,2):  -32 y(2,0,2) - u(0,2,2) <= -0
MCLin3(0,2,2):  22 y(2,0,2) + v(0,2,2) - u(0,2,2) <= 22
MCLin4(0,2,2):  22 y(2,0,2) - u(0,2,2) >= -0
MCLin5(0,2,2):  -32 y(2,0,2) + v(0,2,2) - u(0,2,2) >= -32
MCLin6(2,0,2):  u(2,0,2) >= -0
MCLin7(2,0,2):  -31 y(0,2,2) - u(2,0,2) <= -0
MCLin8(2,0,2):  23 y(0,2,2) + v(2,0,2) - u(2,0,2) <= 23
MCLin9(2,0,2):  23 y(0,2,2) - u(2,0,2) >= -0
MCLin10(2,0,2):  -31 y(0,2,2) + v(2,0,2) - u(2,0,2) >= -31
MCLinV(1,2,0):  x(1,0) - v(1,2,0) - x(2,0) = 4
MCLinV(2,1,0):  - x(1,0) - v(2,1,0) + x(2,0) = 1
MCLin1(1,2,0):  u(1,2,0) >= -0
MCLin2(1,2,0):  -29 y(2,1,0) - u(1,2,0) <= -0
MCLin3(1,2,0):  22 y(2,1,0) + v(1,2,0) - u(1,2,0) <= 22
MCLin4(1,2,0):  22 y(2,1,0) - u(1,2,0) >= -0
MCLin5(1,2,0):  -29 y(2,1,0) + v(1,2,0) - u(1,2,0) >= -29
MCLin6(2,1,0):  u(2,1,0) >= -0
MCLin7(2,1,0):  -27 y(1,2,0) - u(2,1,0) <= -0
MCLin8(2,1,0):  24 y(1,2,0) + v(2,1,0) - u(2,1,0) <= 24
MCLin9(2,1,0):  24 y(1,2,0) - u(2,1,0) >= -0
MCLin10(2,1,0):  -27 y(1,2,0) + v(2,1,0) - u(2,1,0) >= -27
MCLinV(1,2,1):  x(1,1) - v(1,2,1) - x(2,1) = 5
MCLinV(2,1,1):  - x(1,1) - v(2,1,1) + x(2,1) = 8
MCLin1(1,2,1):  u(1,2,1) >= -0
MCLin2(1,2,1):  -33 y(2,1,1) - u(1,2,1) <= -0
MCLin3(1,2,1):  18 y(2,1,1) + v(1,2,1) - u(1,2,1) <= 18
MCLin4(1,2,1):  18 y(2,1,1) - u(1,2,1) >= -0
MCLin5(1,2,1):  -33 y(2,1,1) + v(1,2,1) - u(1,2,1) >= -33
MCLin6(2,1,1):  u(2,1,1) >= -0
MCLin7(2,1,1):  -31 y(1,2,1) - u(2,1,1) <= -0
MCLin8(2,1,1):  20 y(1,2,1) + v(2,1,1) - u(2,1,1) <= 20
MCLin9(2,1,1):  20 y(1,2,1) - u(2,1,1) >= -0
MCLin10(2,1,1):  -31 y(1,2,1) + v(2,1,1) - u(2,1,1) >= -31
MCLinV(1,2,2):  x(1,2) - v(1,2,2) - x(2,2) = 6
MCLinV(2,1,2):  - x(1,2) - v(2,1,2) + x(2,2) = 5
MCLin1(1,2,2):  u(1,2,2) >= -0
MCLin2(1,2,2):  -31 y(2,1,2) - u(1,2,2) <= -0
MCLin3(1,2,2):  20 y(2,1,2) + v(1,2,2) - u(1,2,2) <= 20
MCLin4(1,2,2):  20 y(2,1,2) - u(1,2,2) >= -0
MCLin5(1,2,2):  -31 y(2,1,2) + v(1,2,2) - u(1,2,2) >= -31
MCLin6(2,1,2):  u(2,1,2) >= -0
MCLin7(2,1,2):  -31 y(1,2,2) - u(2,1,2) <= -0
MCLin8(2,1,2):  20 y(1,2,2) + v(2,1,2) - u(2,1,2) <= 20
MCLin9(2,1,2):  20 y(1,2,2) - u(2,1,2) >= -0
MCLin10(2,1,2):  -31 y(1,2,2) + v(2,1,2) - u(2,1,2) >= -31
makespan(0):  C - x(0,2) >= 3
makespan(1):  C - x(1,2) >= 5
makespan(2):  C - x(2,2) >= 6
cut_clique_0(012,0):  0.25000 x(1,0) + x(2,0) >= 1
cut_clique_0(012,1):  0.07407 x(0,1) + 0.33333 x(1,1) >= 1
cut_clique_0(012,2):  0.01107 x(0,2) + 0.03018 x(1,2) + 0.03622 x(2,2) >= 1
cut_clique_1(012,0):  0.18919 x(0,0) + 0.02703 x(1,0) + 0.05405 x(2,0) >= 1
cut_clique_1(012,1):  0.02135 x(0,1) + 0.08046 x(1,1) + 0.06897 x(2,1) >= 1
cut_clique_0:  0.42391 x(2,0) + 0.08696 x(1,1) + 0.05435 x(2,1) >= 1
cut_clique_1:  0.14130 x(2,0) + 0.02019 x(0,1) + 0.08696 x(1,1) + 0.05435 x(2,1) >= 1
Bounds
 0 <= C <= 40
 3 <= x(0,0) <= 32
 0 <= y(0,1,0) <= 1
 0 <= y(1,0,0) <= 1
 -24 <= v(0,1,0) <= 31
 -37 <= v(1,0,0) <= 18
 -400 <= u(0,1,0)
 -400 <= u(1,0,0)
 0 <= y(0,2,0) <= 1
 0 <= y(2,0,0) <= 1
 -26 <= v(0,2,0) <= 28
 -37 <= v(2,0,0) <= 17
 -400 <= u(0,2,0)
 -400 <= u(2,0,0)
 0 <= x(1,0) <= 26
 0 <= y(1,2,0) <= 1
 0 <= y(2,1,0) <= 1
 -29 <= v(1,2,0) <= 22
 -27 <= v(2,1,0) <= 24
 -400 <= u(1,2,0)
 -400 <= u(2,1,0)
 0 <= x(2,0) <= 25
 0 <= x(0,1) <= 29
 0 <= y(0,1,1) <= 1
 0 <= y(1,0,1) <= 1
 -35 <= v(0,1,1) <= 20
 -31 <= v(1,0,1) <= 24
 -400 <= u(0,1,1)
 -400 <= u(1,0,1)
 0 <= y(0,2,1) <= 1
 0 <= y(2,0,1) <= 1
 -34 <= v(0,2,1) <= 20
 -28 <= v(2,0,1) <= 26
 -400 <= u(0,2,1)
 -400 <= u(2,0,1)
 1 <= x(1,1) <= 27
 0 <= y(1,2,1) <= 1
 0 <= y(2,1,1) <= 1
 -33 <= v(1,2,1) <= 18
 -31 <= v(2,1,1) <= 20
 -400 <= u(1,2,1)
 -400 <= u(2,1,1)
 4 <= x(2,1) <= 29
 8 <= x(0,2) <= 37
 0 <= y(0,1,2) <= 1
 0 <= y(1,0,2) <= 1
 -32 <= v(0,1,2) <= 23
 -31 <= v(1,0,2) <= 24
 -400 <= u(0,1,2)
 -400 <= u(1,0,2)
 0 <= y(0,2,2) <= 1
 0 <= y(2,0,2) <= 1
 -32 <= v(0,2,2) <= 22
 -31 <= v(2,0,2) <= 23
 -400 <= u(0,2,2)
 -400 <= u(2,0,2)
 9 <= x(1,2) <= 35
 0 <= y(1,2,2) <= 1
 0 <= y(2,1,2) <= 1
 -31 <= v(1,2,2) <= 20
 -31 <= v(2,1,2) <= 20
 -400 <= u(1,2,2)
 -400 <= u(2,1,2)
 9 <= x(2,2) <= 34
Integers
C x(0,0) y(0,1,0) y(1,0,0) v(0,1,0) v(1,0,0) u(0,1,0) u(1,0,0) y(0,2,0) y(2,0,0) 
v(0,2,0) v(2,0,0) u(0,2,0) u(2,0,0) x(1,0) y(1,2,0) y(2,1,0) v(1,2,0) v(2,1,0) u(1,2,0) 
u(2,1,0) x(2,0) x(0,1) y(0,1,1) y(1,0,1) v(0,1,1) v(1,0,1) u(0,1,1) u(1,0,1) y(0,2,1) 
y(2,0,1) v(0,2,1) v(2,0,1) u(0,2,1) u(2,0,1) x(1,1) y(1,2,1) y(2,1,1) v(1,2,1) v(2,1,1) 
u(1,2,1) u(2,1,1) x(2,1) x(0,2) y(0,1,2) y(1,0,2) v(0,1,2) v(1,0,2) u(0,1,2) u(1,0,2) 
y(0,2,2) y(2,0,2) v(0,2,2) v(2,0,2) u(0,2,2) u(2,0,2) x(1,2) y(1,2,2) y(2,1,2) v(1,2,2) 
v(2,1,2) u(1,2,2) u(2,1,2) x(2,2) 
End
